c turning on binary mode checking
c parsing input formula with 259840 variables and 1039929 clauses
c finished parsing, read 3114878 bytes from proof file
c detected empty clause; start verification via backward checking
c 3600 of 1039929 clauses in core                            
c 1199 of 120272 lemmas in core using 23465 resolution steps
c 0 RAT lemmas in core; 101 redundant literals in core lemmas
s VERIFIED
c verification time: 1.288 seconds
